\ Model MTZ_MODEL
\ LP format - for model browsing. Use MPS format to capture full model detail.
Minimize
  p[0,1] + p[0,2] + p[0,3] + p[0,4] + p[0,5] + p[1,0] + p[1,2] + p[1,3]
   + p[1,4] + p[1,5] + p[2,0] + p[2,1] + p[2,3] + p[2,4] + p[2,5] + p[3,0]
   + p[3,1] + p[3,2] + p[3,4] + p[3,5] + p[4,0] + p[4,1] + p[4,2] + p[4,3]
   + p[4,5] + p[5,0] + p[5,1] + p[5,2] + p[5,3] + p[5,4] + dc[0] + dc[1]
   + dc[2] + dc[3] + dc[4] + dc[5]
Subject To
 p2: p[0,1] - 56.28507064542219 z[0,1] >= 0
 p3: p[0,1] - 89.47469467056845 z[0,1] - dcc[0,1] >= -89.47469467056845
 R2: dcc[0,1] <= 89.47469467056845
 R3: x[0,1,0] - x[1,0,0] + dif[0,1,0] >= 0
 R4: - x[0,1,0] + x[1,0,0] + dif[0,1,0] >= 0
 R5: x[0,1,1] - x[1,0,1] + dif[0,1,1] >= 0
 R6: - x[0,1,1] + x[1,0,1] + dif[0,1,1] >= 0
 p2: p[0,2] - 53.96142841628954 z[0,2] >= 0
 p3: p[0,2] - 79.38856669458914 z[0,2] - dcc[0,2] >= -79.38856669458914
 R9: dcc[0,2] <= 79.38856669458914
 R10: x[0,1,0] - x[2,0,0] + dif[0,2,0] >= 0
 R11: - x[0,1,0] + x[2,0,0] + dif[0,2,0] >= 0
 R12: x[0,1,1] - x[2,0,1] + dif[0,2,1] >= 0
 R13: - x[0,1,1] + x[2,0,1] + dif[0,2,1] >= 0
 p2: p[0,3] - 48.66782158907856 z[0,3] >= 0
 p3: p[0,3] - 77.38912598454033 z[0,3] - dcc[0,3] >= -77.38912598454033
 R16: dcc[0,3] <= 77.38912598454033
 R17: x[0,1,0] - x[3,0,0] + dif[0,3,0] >= 0
 R18: - x[0,1,0] + x[3,0,0] + dif[0,3,0] >= 0
 R19: x[0,1,1] - x[3,0,1] + dif[0,3,1] >= 0
 R20: - x[0,1,1] + x[3,0,1] + dif[0,3,1] >= 0
 p2: p[0,4] - 31.90562035234179 z[0,4] >= 0
 p3: p[0,4] - 62.38096606461301 z[0,4] - dcc[0,4] >= -62.38096606461301
 R23: dcc[0,4] <= 62.38096606461301
 R24: x[0,1,0] - x[4,0,0] + dif[0,4,0] >= 0
 R25: - x[0,1,0] + x[4,0,0] + dif[0,4,0] >= 0
 R26: x[0,1,1] - x[4,0,1] + dif[0,4,1] >= 0
 R27: - x[0,1,1] + x[4,0,1] + dif[0,4,1] >= 0
 p2: p[0,5] - 52.88670978010163 z[0,5] >= 0
 p3: p[0,5] - 79.54048629402143 z[0,5] - dcc[0,5] >= -79.54048629402143
 R30: dcc[0,5] <= 79.54048629402143
 R31: x[0,1,0] - x[5,0,0] + dif[0,5,0] >= 0
 R32: - x[0,1,0] + x[5,0,0] + dif[0,5,0] >= 0
 R33: x[0,1,1] - x[5,0,1] + dif[0,5,1] >= 0
 R34: - x[0,1,1] + x[5,0,1] + dif[0,5,1] >= 0
 p2: p[1,0] - 56.28507064542219 z[1,0] >= 0
 p3: p[1,0] - 89.47469467056845 z[1,0] - dcc[1,0] >= -89.47469467056845
 R37: dcc[1,0] <= 89.47469467056845
 R38: - x[0,0,0] + x[1,1,0] + dif[1,0,0] >= 0
 R39: x[0,0,0] - x[1,1,0] + dif[1,0,0] >= 0
 R40: - x[0,0,1] + x[1,1,1] + dif[1,0,1] >= 0
 R41: x[0,0,1] - x[1,1,1] + dif[1,0,1] >= 0
 p2: p[1,2] - 41.03762690168323 z[1,2] >= 0
 p3: p[1,2] - 71.41986250342555 z[1,2] - dcc[1,2] >= -71.41986250342555
 R44: dcc[1,2] <= 71.41986250342555
 R45: x[1,1,0] - x[2,0,0] + dif[1,2,0] >= 0
 R46: - x[1,1,0] + x[2,0,0] + dif[1,2,0] >= 0
 R47: x[1,1,1] - x[2,0,1] + dif[1,2,1] >= 0
 R48: - x[1,1,1] + x[2,0,1] + dif[1,2,1] >= 0
 p2: p[1,3] - 60.28475287565503 z[1,3] >= 0
 p3: p[1,3] - 93.96115459455949 z[1,3] - dcc[1,3] >= -93.96115459455949
 R51: dcc[1,3] <= 93.96115459455949
 R52: x[1,1,0] - x[3,0,0] + dif[1,3,0] >= 0
 R53: - x[1,1,0] + x[3,0,0] + dif[1,3,0] >= 0
 R54: x[1,1,1] - x[3,0,1] + dif[1,3,1] >= 0
 R55: - x[1,1,1] + x[3,0,1] + dif[1,3,1] >= 0
 p2: p[1,4] - 35.71229248967865 z[1,4] >= 0
 p3: p[1,4] - 71.14273552539257 z[1,4] - dcc[1,4] >= -71.14273552539257
 R58: dcc[1,4] <= 71.14273552539257
 R59: x[1,1,0] - x[4,0,0] + dif[1,4,0] >= 0
 R60: - x[1,1,0] + x[4,0,0] + dif[1,4,0] >= 0
 R61: x[1,1,1] - x[4,0,1] + dif[1,4,1] >= 0
 R62: - x[1,1,1] + x[4,0,1] + dif[1,4,1] >= 0
 p2: p[1,5] - 36.89222049527802 z[1,5] >= 0
 p3: p[1,5] - 68.50109433264053 z[1,5] - dcc[1,5] >= -68.50109433264053
 R65: dcc[1,5] <= 68.50109433264053
 R66: x[1,1,0] - x[5,0,0] + dif[1,5,0] >= 0
 R67: - x[1,1,0] + x[5,0,0] + dif[1,5,0] >= 0
 R68: x[1,1,1] - x[5,0,1] + dif[1,5,1] >= 0
 R69: - x[1,1,1] + x[5,0,1] + dif[1,5,1] >= 0
 p2: p[2,0] - 53.96142841628954 z[2,0] >= 0
 p3: p[2,0] - 79.38856669458914 z[2,0] - dcc[2,0] >= -79.38856669458914
 R72: dcc[2,0] <= 79.38856669458914
 R73: - x[0,0,0] + x[2,1,0] + dif[2,0,0] >= 0
 R74: x[0,0,0] - x[2,1,0] + dif[2,0,0] >= 0
 R75: - x[0,0,1] + x[2,1,1] + dif[2,0,1] >= 0
 R76: x[0,0,1] - x[2,1,1] + dif[2,0,1] >= 0
 p2: p[2,1] - 41.03762690168323 z[2,1] >= 0
 p3: p[2,1] - 71.41986250342555 z[2,1] - dcc[2,1] >= -71.41986250342555
 R79: dcc[2,1] <= 71.41986250342555
 R80: - x[1,0,0] + x[2,1,0] + dif[2,1,0] >= 0
 R81: x[1,0,0] - x[2,1,0] + dif[2,1,0] >= 0
 R82: - x[1,0,1] + x[2,1,1] + dif[2,1,1] >= 0
 R83: x[1,0,1] - x[2,1,1] + dif[2,1,1] >= 0
 p2: p[2,3] - 11.43865914033639 z[2,3] >= 0
 p3: p[2,3] - 37.35257511239418 z[2,3] - dcc[2,3] >= -37.35257511239418
 R86: dcc[2,3] <= 37.35257511239418
 R87: x[2,1,0] - x[3,0,0] + dif[2,3,0] >= 0
 R88: - x[2,1,0] + x[3,0,0] + dif[2,3,0] >= 0
 R89: x[2,1,1] - x[3,0,1] + dif[2,3,1] >= 0
 R90: - x[2,1,1] + x[3,0,1] + dif[2,3,1] >= 0
 p2: p[2,4] - 5.698551593215354 z[2,4] >= 0
 p3: p[2,4] - 33.36650888208261 z[2,4] - dcc[2,4] >= -33.36650888208261
 R93: dcc[2,4] <= 33.36650888208261
 R94: x[2,1,0] - x[4,0,0] + dif[2,4,0] >= 0
 R95: - x[2,1,0] + x[4,0,0] + dif[2,4,0] >= 0
 R96: x[2,1,1] - x[4,0,1] + dif[2,4,1] >= 0
 R97: - x[2,1,1] + x[4,0,1] + dif[2,4,1] >= 0
 p2: p[2,5] + 8.345197090413889 z[2,5] >= 0
 p3: p[2,5] - 15.50119100010195 z[2,5] - dcc[2,5] >= -15.50119100010195
 R100: dcc[2,5] <= 15.50119100010195
 R101: x[2,1,0] - x[5,0,0] + dif[2,5,0] >= 0
 R102: - x[2,1,0] + x[5,0,0] + dif[2,5,0] >= 0
 R103: x[2,1,1] - x[5,0,1] + dif[2,5,1] >= 0
 R104: - x[2,1,1] + x[5,0,1] + dif[2,5,1] >= 0
 p2: p[3,0] - 48.66782158907856 z[3,0] >= 0
 p3: p[3,0] - 77.38912598454033 z[3,0] - dcc[3,0] >= -77.38912598454033
 R107: dcc[3,0] <= 77.38912598454033
 R108: - x[0,0,0] + x[3,1,0] + dif[3,0,0] >= 0
 R109: x[0,0,0] - x[3,1,0] + dif[3,0,0] >= 0
 R110: - x[0,0,1] + x[3,1,1] + dif[3,0,1] >= 0
 R111: x[0,0,1] - x[3,1,1] + dif[3,0,1] >= 0
 p2: p[3,1] - 60.28475287565503 z[3,1] >= 0
 p3: p[3,1] - 93.96115459455949 z[3,1] - dcc[3,1] >= -93.96115459455949
 R114: dcc[3,1] <= 93.96115459455949
 R115: - x[1,0,0] + x[3,1,0] + dif[3,1,0] >= 0
 R116: x[1,0,0] - x[3,1,0] + dif[3,1,0] >= 0
 R117: - x[1,0,1] + x[3,1,1] + dif[3,1,1] >= 0
 R118: x[1,0,1] - x[3,1,1] + dif[3,1,1] >= 0
 p2: p[3,2] - 11.43865914033639 z[3,2] >= 0
 p3: p[3,2] - 37.35257511239418 z[3,2] - dcc[3,2] >= -37.35257511239418
 R121: dcc[3,2] <= 37.35257511239418
 R122: - x[2,0,0] + x[3,1,0] + dif[3,2,0] >= 0
 R123: x[2,0,0] - x[3,1,0] + dif[3,2,0] >= 0
 R124: - x[2,0,1] + x[3,1,1] + dif[3,2,1] >= 0
 R125: x[2,0,1] - x[3,1,1] + dif[3,2,1] >= 0
 p2: p[3,4] - 10.41740898642756 z[3,4] >= 0
 p3: p[3,4] - 41.37953239245697 z[3,4] - dcc[3,4] >= -41.37953239245697
 R128: dcc[3,4] <= 41.37953239245697
 R129: x[3,1,0] - x[4,0,0] + dif[3,4,0] >= 0
 R130: - x[3,1,0] + x[4,0,0] + dif[3,4,0] >= 0
 R131: x[3,1,1] - x[4,0,1] + dif[3,4,1] >= 0
 R132: - x[3,1,1] + x[4,0,1] + dif[3,4,1] >= 0
 p2: p[3,5] - 14.03297601918728 z[3,5] >= 0
 p3: p[3,5] - 41.17353022686528 z[3,5] - dcc[3,5] >= -41.17353022686528
 R135: dcc[3,5] <= 41.17353022686528
 R136: x[3,1,0] - x[5,0,0] + dif[3,5,0] >= 0
 R137: - x[3,1,0] + x[5,0,0] + dif[3,5,0] >= 0
 R138: x[3,1,1] - x[5,0,1] + dif[3,5,1] >= 0
 R139: - x[3,1,1] + x[5,0,1] + dif[3,5,1] >= 0
 p2: p[4,0] - 31.90562035234179 z[4,0] >= 0
 p3: p[4,0] - 62.38096606461301 z[4,0] - dcc[4,0] >= -62.38096606461301
 R142: dcc[4,0] <= 62.38096606461301
 R143: - x[0,0,0] + x[4,1,0] + dif[4,0,0] >= 0
 R144: x[0,0,0] - x[4,1,0] + dif[4,0,0] >= 0
 R145: - x[0,0,1] + x[4,1,1] + dif[4,0,1] >= 0
 R146: x[0,0,1] - x[4,1,1] + dif[4,0,1] >= 0
 p2: p[4,1] - 35.71229248967865 z[4,1] >= 0
 p3: p[4,1] - 71.14273552539257 z[4,1] - dcc[4,1] >= -71.14273552539257
 R149: dcc[4,1] <= 71.14273552539257
 R150: - x[1,0,0] + x[4,1,0] + dif[4,1,0] >= 0
 R151: x[1,0,0] - x[4,1,0] + dif[4,1,0] >= 0
 R152: - x[1,0,1] + x[4,1,1] + dif[4,1,1] >= 0
 R153: x[1,0,1] - x[4,1,1] + dif[4,1,1] >= 0
 p2: p[4,2] - 5.698551593215354 z[4,2] >= 0
 p3: p[4,2] - 33.36650888208261 z[4,2] - dcc[4,2] >= -33.36650888208261
 R156: dcc[4,2] <= 33.36650888208261
 R157: - x[2,0,0] + x[4,1,0] + dif[4,2,0] >= 0
 R158: x[2,0,0] - x[4,1,0] + dif[4,2,0] >= 0
 R159: - x[2,0,1] + x[4,1,1] + dif[4,2,1] >= 0
 R160: x[2,0,1] - x[4,1,1] + dif[4,2,1] >= 0
 p2: p[4,3] - 10.41740898642756 z[4,3] >= 0
 p3: p[4,3] - 41.37953239245697 z[4,3] - dcc[4,3] >= -41.37953239245697
 R163: dcc[4,3] <= 41.37953239245697
 R164: - x[3,0,0] + x[4,1,0] + dif[4,3,0] >= 0
 R165: x[3,0,0] - x[4,1,0] + dif[4,3,0] >= 0
 R166: - x[3,0,1] + x[4,1,1] + dif[4,3,1] >= 0
 R167: x[3,0,1] - x[4,1,1] + dif[4,3,1] >= 0
 p2: p[4,5] - 4.828130765076953 z[4,5] >= 0
 p3: p[4,5] - 33.72272628956441 z[4,5] - dcc[4,5] >= -33.72272628956441
 R170: dcc[4,5] <= 33.72272628956441
 R171: x[4,1,0] - x[5,0,0] + dif[4,5,0] >= 0
 R172: - x[4,1,0] + x[5,0,0] + dif[4,5,0] >= 0
 R173: x[4,1,1] - x[5,0,1] + dif[4,5,1] >= 0
 R174: - x[4,1,1] + x[5,0,1] + dif[4,5,1] >= 0
 p2: p[5,0] - 52.88670978010163 z[5,0] >= 0
 p3: p[5,0] - 79.54048629402143 z[5,0] - dcc[5,0] >= -79.54048629402143
 R177: dcc[5,0] <= 79.54048629402143
 R178: - x[0,0,0] + x[5,1,0] + dif[5,0,0] >= 0
 R179: x[0,0,0] - x[5,1,0] + dif[5,0,0] >= 0
 R180: - x[0,0,1] + x[5,1,1] + dif[5,0,1] >= 0
 R181: x[0,0,1] - x[5,1,1] + dif[5,0,1] >= 0
 p2: p[5,1] - 36.89222049527802 z[5,1] >= 0
 p3: p[5,1] - 68.50109433264053 z[5,1] - dcc[5,1] >= -68.50109433264053
 R184: dcc[5,1] <= 68.50109433264053
 R185: - x[1,0,0] + x[5,1,0] + dif[5,1,0] >= 0
 R186: x[1,0,0] - x[5,1,0] + dif[5,1,0] >= 0
 R187: - x[1,0,1] + x[5,1,1] + dif[5,1,1] >= 0
 R188: x[1,0,1] - x[5,1,1] + dif[5,1,1] >= 0
 p2: p[5,2] + 8.345197090413889 z[5,2] >= 0
 p3: p[5,2] - 15.50119100010195 z[5,2] - dcc[5,2] >= -15.50119100010195
 R191: dcc[5,2] <= 15.50119100010195
 R192: - x[2,0,0] + x[5,1,0] + dif[5,2,0] >= 0
 R193: x[2,0,0] - x[5,1,0] + dif[5,2,0] >= 0
 R194: - x[2,0,1] + x[5,1,1] + dif[5,2,1] >= 0
 R195: x[2,0,1] - x[5,1,1] + dif[5,2,1] >= 0
 p2: p[5,3] - 14.03297601918728 z[5,3] >= 0
 p3: p[5,3] - 41.17353022686528 z[5,3] - dcc[5,3] >= -41.17353022686528
 R198: dcc[5,3] <= 41.17353022686528
 R199: - x[3,0,0] + x[5,1,0] + dif[5,3,0] >= 0
 R200: x[3,0,0] - x[5,1,0] + dif[5,3,0] >= 0
 R201: - x[3,0,1] + x[5,1,1] + dif[5,3,1] >= 0
 R202: x[3,0,1] - x[5,1,1] + dif[5,3,1] >= 0
 p2: p[5,4] - 4.828130765076953 z[5,4] >= 0
 p3: p[5,4] - 33.72272628956441 z[5,4] - dcc[5,4] >= -33.72272628956441
 R205: dcc[5,4] <= 33.72272628956441
 R206: - x[4,0,0] + x[5,1,0] + dif[5,4,0] >= 0
 R207: x[4,0,0] - x[5,1,0] + dif[5,4,0] >= 0
 R208: - x[4,0,1] + x[5,1,1] + dif[5,4,1] >= 0
 R209: x[4,0,1] - x[5,1,1] + dif[5,4,1] >= 0
 R210: z[0,1] + z[0,2] + z[0,3] + z[0,4] + z[0,5] = 1
 R211: z[1,0] + z[1,2] + z[1,3] + z[1,4] + z[1,5] = 1
 R212: z[2,0] + z[2,1] + z[2,3] + z[2,4] + z[2,5] = 1
 R213: z[3,0] + z[3,1] + z[3,2] + z[3,4] + z[3,5] = 1
 R214: z[4,0] + z[4,1] + z[4,2] + z[4,3] + z[4,5] = 1
 R215: z[5,0] + z[5,1] + z[5,2] + z[5,3] + z[5,4] = 1
 R216: z[1,0] + z[2,0] + z[3,0] + z[4,0] + z[5,0] = 1
 R217: z[0,1] + z[2,1] + z[3,1] + z[4,1] + z[5,1] = 1
 R218: z[0,2] + z[1,2] + z[3,2] + z[4,2] + z[5,2] = 1
 R219: z[0,3] + z[1,3] + z[2,3] + z[4,3] + z[5,3] = 1
 R220: z[0,4] + z[1,4] + z[2,4] + z[3,4] + z[5,4] = 1
 R221: z[0,5] + z[1,5] + z[2,5] + z[3,5] + z[4,5] = 1
 rest7: z[0,1] + z[1,0] <= 1
 rest7: z[0,2] + z[2,0] <= 1
 rest7: z[0,3] + z[3,0] <= 1
 rest7: z[0,4] + z[4,0] <= 1
 rest7: z[0,5] + z[5,0] <= 1
 rest7: z[0,1] + z[1,0] <= 1
 rest7: z[1,2] + z[2,1] <= 1
 rest7: z[1,3] + z[3,1] <= 1
 rest7: z[1,4] + z[4,1] <= 1
 rest7: z[1,5] + z[5,1] <= 1
 rest7: z[0,2] + z[2,0] <= 1
 rest7: z[1,2] + z[2,1] <= 1
 rest7: z[2,3] + z[3,2] <= 1
 rest7: z[2,4] + z[4,2] <= 1
 rest7: z[2,5] + z[5,2] <= 1
 rest7: z[0,3] + z[3,0] <= 1
 rest7: z[1,3] + z[3,1] <= 1
 rest7: z[2,3] + z[3,2] <= 1
 rest7: z[3,4] + z[4,3] <= 1
 rest7: z[3,5] + z[5,3] <= 1
 rest7: z[0,4] + z[4,0] <= 1
 rest7: z[1,4] + z[4,1] <= 1
 rest7: z[2,4] + z[4,2] <= 1
 rest7: z[3,4] + z[4,3] <= 1
 rest7: z[4,5] + z[5,4] <= 1
 rest7: z[0,5] + z[5,0] <= 1
 rest7: z[1,5] + z[5,1] <= 1
 rest7: z[2,5] + z[5,2] <= 1
 rest7: z[3,5] + z[5,3] <= 1
 rest7: z[4,5] + z[5,4] <= 1
 R252: 6 z[1,2] + sc[1] - sc[2] <= 5
 R253: 6 z[1,3] + sc[1] - sc[3] <= 5
 R254: 6 z[1,4] + sc[1] - sc[4] <= 5
 R255: 6 z[1,5] + sc[1] - sc[5] <= 5
 R256: 6 z[2,1] - sc[1] + sc[2] <= 5
 R257: 6 z[2,3] + sc[2] - sc[3] <= 5
 R258: 6 z[2,4] + sc[2] - sc[4] <= 5
 R259: 6 z[2,5] + sc[2] - sc[5] <= 5
 R260: 6 z[3,1] - sc[1] + sc[3] <= 5
 R261: 6 z[3,2] - sc[2] + sc[3] <= 5
 R262: 6 z[3,4] + sc[3] - sc[4] <= 5
 R263: 6 z[3,5] + sc[3] - sc[5] <= 5
 R264: 6 z[4,1] - sc[1] + sc[4] <= 5
 R265: 6 z[4,2] - sc[2] + sc[4] <= 5
 R266: 6 z[4,3] - sc[3] + sc[4] <= 5
 R267: 6 z[4,5] + sc[4] - sc[5] <= 5
 R268: 6 z[5,1] - sc[1] + sc[5] <= 5
 R269: 6 z[5,2] - sc[2] + sc[5] <= 5
 R270: 6 z[5,3] - sc[3] + sc[5] <= 5
 R271: 6 z[5,4] - sc[4] + sc[5] <= 5
 rest10: sc[0] = 0
 rest11: sc[1] >= 1
 rest11: sc[2] >= 1
 rest11: sc[3] >= 1
 rest11: sc[4] >= 1
 rest11: sc[5] >= 1
 R278: dc[0] <= 14.11726335085179
 R279: - x[0,0,0] + x[0,1,0] + difc[0,0] >= 0
 R280: x[0,0,0] - x[0,1,0] + difc[0,0] >= 0
 R281: - x[0,0,1] + x[0,1,1] + difc[0,1] >= 0
 R282: x[0,0,1] - x[0,1,1] + difc[0,1] >= 0
 R283: dc[1] <= 19.07236067429449
 R284: - x[1,0,0] + x[1,1,0] + difc[1,0] >= 0
 R285: x[1,0,0] - x[1,1,0] + difc[1,0] >= 0
 R286: - x[1,0,1] + x[1,1,1] + difc[1,1] >= 0
 R287: x[1,0,1] - x[1,1,1] + difc[1,1] >= 0
 R288: dc[2] <= 11.30987492744782
 R289: - x[2,0,0] + x[2,1,0] + difc[2,0] >= 0
 R290: x[2,0,0] - x[2,1,0] + difc[2,0] >= 0
 R291: - x[2,0,1] + x[2,1,1] + difc[2,1] >= 0
 R292: x[2,0,1] - x[2,1,1] + difc[2,1] >= 0
 R293: dc[3] <= 14.60404104460998
 R294: - x[3,0,0] + x[3,1,0] + difc[3,0] >= 0
 R295: x[3,0,0] - x[3,1,0] + difc[3,0] >= 0
 R296: - x[3,0,1] + x[3,1,1] + difc[3,1] >= 0
 R297: x[3,0,1] - x[3,1,1] + difc[3,1] >= 0
 R298: dc[4] <= 16.35808236141943
 R299: - x[4,0,0] + x[4,1,0] + difc[4,0] >= 0
 R300: x[4,0,0] - x[4,1,0] + difc[4,0] >= 0
 R301: - x[4,0,1] + x[4,1,1] + difc[4,1] >= 0
 R302: x[4,0,1] - x[4,1,1] + difc[4,1] >= 0
 R303: dc[5] <= 12.53651316306802
 R304: - x[5,0,0] + x[5,1,0] + difc[5,0] >= 0
 R305: x[5,0,0] - x[5,1,0] + difc[5,0] >= 0
 R306: - x[5,0,1] + x[5,1,1] + difc[5,1] >= 0
 R307: x[5,0,1] - x[5,1,1] + difc[5,1] >= 0
 qc0: [ - dcc[0,1] ^2 + dif[0,1,0] ^2 + dif[0,1,1] ^2 ] <= 0
 qc1: [ - dcc[0,2] ^2 + dif[0,2,0] ^2 + dif[0,2,1] ^2 ] <= 0
 qc2: [ - dcc[0,3] ^2 + dif[0,3,0] ^2 + dif[0,3,1] ^2 ] <= 0
 qc3: [ - dcc[0,4] ^2 + dif[0,4,0] ^2 + dif[0,4,1] ^2 ] <= 0
 qc4: [ - dcc[0,5] ^2 + dif[0,5,0] ^2 + dif[0,5,1] ^2 ] <= 0
 qc5: [ - dcc[1,0] ^2 + dif[1,0,0] ^2 + dif[1,0,1] ^2 ] <= 0
 qc6: [ - dcc[1,2] ^2 + dif[1,2,0] ^2 + dif[1,2,1] ^2 ] <= 0
 qc7: [ - dcc[1,3] ^2 + dif[1,3,0] ^2 + dif[1,3,1] ^2 ] <= 0
 qc8: [ - dcc[1,4] ^2 + dif[1,4,0] ^2 + dif[1,4,1] ^2 ] <= 0
 qc9: [ - dcc[1,5] ^2 + dif[1,5,0] ^2 + dif[1,5,1] ^2 ] <= 0
 qc10: [ - dcc[2,0] ^2 + dif[2,0,0] ^2 + dif[2,0,1] ^2 ] <= 0
 qc11: [ - dcc[2,1] ^2 + dif[2,1,0] ^2 + dif[2,1,1] ^2 ] <= 0
 qc12: [ - dcc[2,3] ^2 + dif[2,3,0] ^2 + dif[2,3,1] ^2 ] <= 0
 qc13: [ - dcc[2,4] ^2 + dif[2,4,0] ^2 + dif[2,4,1] ^2 ] <= 0
 qc14: [ - dcc[2,5] ^2 + dif[2,5,0] ^2 + dif[2,5,1] ^2 ] <= 0
 qc15: [ - dcc[3,0] ^2 + dif[3,0,0] ^2 + dif[3,0,1] ^2 ] <= 0
 qc16: [ - dcc[3,1] ^2 + dif[3,1,0] ^2 + dif[3,1,1] ^2 ] <= 0
 qc17: [ - dcc[3,2] ^2 + dif[3,2,0] ^2 + dif[3,2,1] ^2 ] <= 0
 qc18: [ - dcc[3,4] ^2 + dif[3,4,0] ^2 + dif[3,4,1] ^2 ] <= 0
 qc19: [ - dcc[3,5] ^2 + dif[3,5,0] ^2 + dif[3,5,1] ^2 ] <= 0
 qc20: [ - dcc[4,0] ^2 + dif[4,0,0] ^2 + dif[4,0,1] ^2 ] <= 0
 qc21: [ - dcc[4,1] ^2 + dif[4,1,0] ^2 + dif[4,1,1] ^2 ] <= 0
 qc22: [ - dcc[4,2] ^2 + dif[4,2,0] ^2 + dif[4,2,1] ^2 ] <= 0
 qc23: [ - dcc[4,3] ^2 + dif[4,3,0] ^2 + dif[4,3,1] ^2 ] <= 0
 qc24: [ - dcc[4,5] ^2 + dif[4,5,0] ^2 + dif[4,5,1] ^2 ] <= 0
 qc25: [ - dcc[5,0] ^2 + dif[5,0,0] ^2 + dif[5,0,1] ^2 ] <= 0
 qc26: [ - dcc[5,1] ^2 + dif[5,1,0] ^2 + dif[5,1,1] ^2 ] <= 0
 qc27: [ - dcc[5,2] ^2 + dif[5,2,0] ^2 + dif[5,2,1] ^2 ] <= 0
 qc28: [ - dcc[5,3] ^2 + dif[5,3,0] ^2 + dif[5,3,1] ^2 ] <= 0
 qc29: [ - dcc[5,4] ^2 + dif[5,4,0] ^2 + dif[5,4,1] ^2 ] <= 0
 inC1: - 178.0223530830458 x[0,0,0] - 155.7130948892164 x[0,0,1] + [
   x[0,0,0] ^2 + x[0,0,1] ^2 ] <= -13934.80724817136
 inC1: - 178.0223530830458 x[0,1,0] - 155.7130948892164 x[0,1,1] + [
   x[0,1,0] ^2 + x[0,1,1] ^2 ] <= -13934.80724817136
 qc32: [ - dc[0] ^2 + difc[0,0] ^2 + difc[0,1] ^2 ] <= 0
 inC1: - 41.78633377319099 x[1,0,0] - 103.8897774772875 x[1,0,1] + [
   x[1,0,0] ^2 + x[1,0,1] ^2 ] <= -3043.857153198614
 inC1: - 41.78633377319099 x[1,1,0] - 103.8897774772875 x[1,1,1] + [
   x[1,1,0] ^2 + x[1,1,1] ^2 ] <= -3043.857153198614
 qc35: [ - dc[1] ^2 + difc[1,0] ^2 + difc[1,1] ^2 ] <= 0
 inC1: - 128.2611743154473 x[2,0,0] - 31.99548788144057 x[2,0,1] + [
   x[2,0,0] ^2 + x[2,0,1] ^2 ] <= -4336.681702668612
 inC1: - 128.2611743154473 x[2,1,0] - 31.99548788144057 x[2,1,1] + [
   x[2,1,0] ^2 + x[2,1,1] ^2 ] <= -4336.681702668612
 qc38: [ - dc[2] ^2 + difc[2,0] ^2 + difc[2,1] ^2 ] <= 0
 inC1: - 176.9964955768592 x[3,0,0] - 29.66032162359128 x[3,0,1] + [
   x[3,0,0] ^2 + x[3,0,1] ^2 ] <= -7998.554027617842
 inC1: - 176.9964955768592 x[3,1,0] - 29.66032162359128 x[3,1,1] + [
   x[3,1,0] ^2 + x[3,1,1] ^2 ] <= -7998.554027617842
 qc41: [ - dc[3] ^2 + difc[3,0] ^2 + difc[3,1] ^2 ] <= 0
 inC1: - 142.5580916557892 x[4,0,0] - 68.35036519524975 x[4,0,1] + [
   x[4,0,0] ^2 + x[4,0,1] ^2 ] <= -6181.748765080356
 inC1: - 142.5580916557892 x[4,1,0] - 68.35036519524975 x[4,1,1] + [
   x[4,1,0] ^2 + x[4,1,1] ^2 ] <= -6181.748765080356
 qc44: [ - dc[4] ^2 + difc[4,0] ^2 + difc[4,1] ^2 ] <= 0
 inC1: - 122.1174892165229 x[5,0,0] - 35.6647360661164 x[5,0,1] + [
   x[5,0,0] ^2 + x[5,0,1] ^2 ] <= -4006.872602231387
 inC1: - 122.1174892165229 x[5,1,0] - 35.6647360661164 x[5,1,1] + [
   x[5,1,0] ^2 + x[5,1,1] ^2 ] <= -4006.872602231387
 qc47: [ - dc[5] ^2 + difc[5,0] ^2 + difc[5,1] ^2 ] <= 0
Bounds
 sc[0] <= 5
 sc[1] <= 5
 sc[2] <= 5
 sc[3] <= 5
 sc[4] <= 5
 sc[5] <= 5
Binaries
 z[0,1] z[0,2] z[0,3] z[0,4] z[0,5] z[1,0] z[1,2] z[1,3] z[1,4] z[1,5]
 z[2,0] z[2,1] z[2,3] z[2,4] z[2,5] z[3,0] z[3,1] z[3,2] z[3,4] z[3,5]
 z[4,0] z[4,1] z[4,2] z[4,3] z[4,5] z[5,0] z[5,1] z[5,2] z[5,3] z[5,4]
End
